996130
26,78,25,51,79,29,40,94,12,43,52,54,98,34,71,28,46,23,11,67,82,16,58,15,61,83,88,50,36,80,38,76,87,45,81,86,14,39,92,22,84,73,95,47,57,33,9,70,48,37,74,32,13,63,68,99,72,55,97,42,35,27,2,64,5,3,85,89,8,53,91,44,93,62,49,56,18,41,69,6,75,77,10,31,60,30,96,21,20,1,66,4,7,65,24,90,59,19,17